100
32
13
5
5
17
13
18
21
14
1
9
18
2
1
24
30
3
8
9
7
30
3
10
29
8
13
21
18
22
2
15
1
17
20
18
1
1
3
3
1
12
12
11
3
12
4
16
10
1
14
12
6
12
20
2
3
6
5
1
20
15
3
3
1
11
10
10
18
3
19
2
6
2
3
2
1
2
1
2
1
21
17
3
2
17
2
1
3
1
1
9
1
2
1
4
4
19
1
3
2
3